Read MPS format model from file dat/rmp/DER_48_4096_40.mps
Reading time = 0.39 seconds
: 4144 rows, 24720 columns, 1070000 nonzeros
Gurobi Optimizer version 9.0.0 build v9.0.0rc2 (linux64)
Optimize a model with 4144 rows, 24720 columns and 1070000 nonzeros
Model fingerprint: 0x34c53fad
Coefficient statistics:
  Matrix range     [3e-05, 1e+01]
  Objective range  [4e-01, 1e+03]
  Bounds range     [2e+04, 2e+04]
  RHS range        [1e+00, 1e+00]
Ordering time: 0.00s

Barrier statistics:
 AA' NZ     : 1.880e+05
 Factor NZ  : 2.341e+05 (roughly 14 MBytes of memory)
 Factor Ops : 1.378e+07 (less than 1 second per iteration)
 Threads    : 1

                  Objective                Residual
Iter       Primal          Dual         Primal    Dual     Compl     Time
   0   7.46879619e+08 -7.34994331e+07  9.88e+06 2.11e-02  4.70e+05     0s
   1   1.68650369e+07 -1.20744648e+07  1.84e+05 3.64e-12  9.29e+03     0s
   2   1.71814149e+06 -4.84135485e+06  1.83e+04 3.64e-12  1.07e+03     0s
   3   3.55431219e+04 -2.71772118e+06  2.06e+02 3.64e-12  1.18e+02     0s
   4   1.23267381e+04 -2.41940692e+04  4.73e-11 3.64e-12  1.47e+00     0s
   5   1.22776920e+04  7.16475349e+03  1.09e-10 1.82e-12  2.06e-01     1s
   6   1.21971661e+04  1.15797295e+04  6.07e-11 3.64e-12  2.49e-02     1s
   7   1.21299199e+04  1.18763728e+04  6.14e-11 3.64e-12  1.02e-02     1s
   8   1.20833822e+04  1.19360517e+04  7.17e-11 1.82e-12  5.95e-03     1s
   9   1.20357929e+04  1.19687996e+04  9.03e-11 1.82e-12  2.70e-03     1s
  10   1.20146224e+04  1.19792007e+04  1.23e-10 1.82e-12  1.43e-03     1s
  11   1.19959851e+04  1.19852269e+04  3.21e-10 1.82e-12  4.34e-04     1s
  12   1.19926438e+04  1.19866842e+04  2.87e-10 1.82e-12  2.41e-04     1s
  13   1.19904451e+04  1.19873374e+04  3.65e-10 1.82e-12  1.25e-04     1s
  14   1.19896203e+04  1.19878766e+04  3.13e-10 3.64e-12  7.04e-05     1s
  15   1.19892817e+04  1.19880413e+04  3.25e-10 3.64e-12  5.01e-05     1s
  16   1.19889926e+04  1.19881918e+04  4.57e-10 1.82e-12  3.23e-05     1s
  17   1.19887531e+04  1.19882961e+04  6.74e-10 1.82e-12  1.85e-05     1s
  18   1.19886033e+04  1.19883464e+04  7.04e-10 1.82e-12  1.04e-05     1s
  19   1.19885535e+04  1.19883686e+04  7.92e-10 1.82e-12  7.46e-06     2s
  20   1.19885206e+04  1.19883905e+04  9.31e-10 1.82e-12  5.25e-06     2s
  21   1.19884861e+04  1.19884061e+04  7.48e-10 1.82e-12  3.23e-06     2s
  22   1.19884654e+04  1.19884113e+04  1.53e-09 1.82e-12  2.19e-06     2s
  23   1.19884528e+04  1.19884155e+04  2.26e-09 1.82e-12  1.51e-06     2s
  24   1.19884318e+04  1.19884189e+04  4.06e-09 1.82e-12  5.18e-07     2s
  25   1.19884268e+04  1.19884206e+04  4.68e-09 3.64e-12  2.50e-07     2s
  26   1.19884246e+04  1.19884209e+04  2.60e-08 1.82e-12  1.52e-07     2s
  27   1.19884219e+04  1.19884211e+04  1.64e-07 1.82e-12  3.11e-08     2s
  28   1.19884211e+04  1.19884211e+04  2.21e-06 3.64e-12  1.24e-09     2s
  29   1.19884211e+04  1.19884211e+04  4.92e-07 3.64e-12  1.52e-12     2s
  30   1.19884211e+04  1.19884211e+04  2.11e-07 2.73e-12  1.53e-15     2s

Barrier solved model in 30 iterations and 2.18 seconds
Optimal objective 1.19884211e+04

Solve time: 2.184968852
Barrier iterations: 30
